Route #1: 24 98 28
Route #2: 21 42 23 16
Route #3: 25 96 74 54 34 33
Route #4: 88 30 37 7 79 66
Route #5: 41 78 15 59
Route #6: 72 63 100 99 90
Route #7: 80 31 86 51
Route #8: 76 94
Route #9: 36 47 32
Route #10: 84 52 82
Route #11: 12 20 62 22
Route #12: 92 53 101
Route #13: 39 48 49 27 57
Route #14: 9 95 97
Route #15: 2 71 93
Route #16: 87 55 69
Route #17: 35 65 4 68 89
Route #18: 60 61 83
Route #19: 38 44 46 3 50 8
Route #20: 10 91 85 67
Route #21: 77 56 17 70
Route #22: 58 73 43 29 64
Route #23: 75 14 5
Route #24: 26 11 40
Route #25: 13 19 45
Route #26: 6 18 81
